networks/zoo_144_1989/zoo_144_1989.txt
Number of groups: 84
Flow 22: {1 3} {3 59} 
Flow 42: {2 59} {59 37} {37 110} 
Flow 65: {14 10} {10 83} 
Flow 69: {59 49} {49 16} {16 89} 
Flow 70: {18 17} {17 90} 
Flow 77: {49 27} {27 100} 
Flow 80: {14 31} {31 104} 
Flow 86: {36 38} {38 111} 
Flow 96: {36 52} {52 125} 
Flow 101: {42 60} {60 133} 
Flow 102: {49 61} {61 134} 
Flow 106: {64 65} {65 138} 
Flow 116: {7 80} 
Flow 143: {42 43} {43 116} 
Flow 169: {5 7} {7 6} {6 79} 
Flow 224: {6 7} {7 4} {4 59} {59 67} {67 140} 
Flow 229: {3 1} {1 74} 
Flow 240: {15 88} 
Flow 246: {49 21} {21 94} 
Flow 249: {49 24} {24 97} 
Flow 268: {59 47} {47 120} 
Flow 292: {8 7} 
Flow 309: {9 15} {15 49} {49 122} 
Flow 321: {10 14} 
Flow 342: {11 12} {12 59} {59 58} {58 131} 
Flow 344: {71 62} {62 135} 
Flow 359: {14 13} {13 86} 
Flow 401: {59 66} {66 139} 
Flow 412: {13 14} {14 15} 
Flow 433: {7 8} {8 81} 
Flow 466: {34 46} {46 119} 
Flow 474: {36 55} {55 128} 
Flow 475: {49 56} {56 129} 
Flow 530: {40 113} 
Flow 536: {16 49} {49 50} {50 123} 
Flow 562: {17 18} {18 49} 
Flow 605: {19 49} {49 15} {15 14} {14 30} {30 103} 
Flow 641: {20 49} 
Flow 673: {21 49} {49 48} {48 121} 
Flow 699: {22 49} {49 19} {19 92} 
Flow 737: {23 22} 
Flow 757: {24 49} {49 45} {45 118} 
Flow 780: {25 22} {22 23} {23 96} 
Flow 798: {49 57} {57 130} 
Flow 815: {26 49} {49 59} {59 71} {71 144} 
Flow 820: {27 49} {49 18} {18 91} 
Flow 848: {28 54} {54 59} {59 132} 
Flow 868: {29 49} {49 40} {40 41} {41 114} 
Flow 885: {30 14} 
Flow 893: {32 14} {14 87} 
Flow 909: {33 36} {36 35} {35 108} 
Flow 1002: {35 36} {36 51} {51 124} 
Flow 1016: {4 7} {7 5} {5 78} 
Flow 1036: {49 26} {26 99} 
Flow 1038: {59 54} {54 28} {28 101} 
Flow 1047: {36 39} {39 112} 
Flow 1079: {37 59} 
Flow 1111: {38 36} {36 53} {53 126} 
Flow 1133: {39 36} {36 59} {59 63} {63 136} 
Flow 1156: {41 40} {40 49} {49 42} {42 115} 
Flow 1181: {15 9} {9 82} 
Flow 1263: {43 42} 
Flow 1285: {45 49} {49 44} {44 117} 
Flow 1331: {46 34} {34 49} 
Flow 1334: {47 59} {59 3} {3 76} 
Flow 1381: {49 20} {20 93} 
Flow 1383: {22 95} 
Flow 1444: {50 49} 
Flow 1463: {53 36} {36 33} {33 106} 
Flow 1536: {55 36} 
Flow 1538: {56 49} 
Flow 1546: {57 49} {49 22} {22 25} {25 98} 
Flow 1598: {58 59} {59 69} {69 142} 
Flow 1678: {60 42} {42 49} {49 34} {34 107} 
Flow 1705: {61 49} {49 29} {29 102} 
Flow 1732: {62 71} {71 59} {59 4} {4 77} 
Flow 1757: {67 68} {68 141} 
Flow 1765: {63 59} {59 64} {64 137} 
Flow 1841: {65 64} {64 59} {59 70} {70 143} 
Flow 1846: {66 59} {59 12} {12 85} 
Flow 1877: {59 2} {2 75} 
Flow 1927: {68 67} {67 59} 
Flow 1929: {69 59} {59 36} {36 109} 
Flow 1956: {70 59} 
Time taken running everything: 610 seconds
